
16 19 11 11 19 19 16 11 16 16 11 19 19 19 19 19 16 16 14 14 14 11 11 11 16 11 11 16 16 11 16 19 19 11 14 19 19 19 16 16 16 11 11 16 11 14 19 19 19 19 16 16 16 11 16 11 16 14 14 14 11 11 11 11 11 11 16 19 19 19 19 16 19 19 19 19 19 19 19 19 
